109 107 110 111 114 112 113 161 160 154 164 165 203 204 202 208 207 206 205 198 199 200 201 166 167 163 162 168 169 170 171 177 178 187 188 186 182 179 180 181 183 185 184 197 196 195 194 193 219 218 220 209 210 211 212 213 214 215 216 217 223 221 222 224 225 226 191 192 190 189 227 228 229 230 231 233 232 234 235 236 237 240 239 238 246 247 245 244 243 242 241 300 257 256 248 249 250 251 252 254 253 255 261 260 259 258 299 262 263 264 265 266 298 297 296 295 294 293 270 268 267 271 269 272 273 274 275 292 291 290 289 288 276 277 278 279 282 281 280 287 286 285 284 283 334 335 336 337 338 339 333 332 331 330 340 341 343 344 345 346 364 363 362 347 348 350 349 358 359 361 360 401 402 403 400 399 406 404 405 408 407 397 398 370 369 368 367 365 342 366 329 328 327 326 325 324 323 322 373 372 371 396 395 394 393 391 392 390 389 388 387 386 382 385 409 384 383 410 418 411 412 356 357 355 354 353 352 351 415 416 414 413 417 419 420 421 422 423 424 425 426 427 428 429 431 430 432 433 434 435 436 438 437 3 2 1 4 0 5 573 572 6 7 8 9 10 11 14 15 16 17 18 19 20 568 569 570 571 468 469 470 471 495 518 519 497 496 464 465 467 466 463 462 461 460 459 458 457 456 455 454 439 440 453 452 499 500 501 498 502 503 504 505 308 309 310 311 312 451 450 441 449 448 447 446 442 443 444 445 381 380 379 378 377 376 375 374 315 314 316 313 317 321 320 319 318 305 306 304 307 303 301 302 508 507 506 509 510 511 513 512 527 528 529 530 531 532 533 488 489 490 491 492 493 524 525 526 523 521 522 514 515 516 517 520 494 472 473 474 567 27 26 25 24 21 13 12 23 22 28 29 31 30 32 36 37 38 35 33 34 558 559 550 551 101 102 100 99 98 97 96 95 94 89 90 93 92 91 555 554 553 552 556 557 41 40 39 42 43 44 45 46 47 48 49 54 55 56 53 52 50 51 84 83 82 85 86 87 88 78 62 79 80 81 57 58 59 60 61 63 64 76 77 75 74 73 72 71 65 66 67 68 70 69 124 125 138 137 134 135 136 139 140 141 151 150 149 152 148 147 146 142 143 144 145 153 155 156 159 157 158 133 132 131 130 129 128 127 126 123 119 118 120 121 122 117 116 115 106 105 104 103 542 541 543 544 547 546 545 548 549 560 561 562 563 564 565 566 478 477 479 480 476 475 482 481 483 484 485 486 487 534 535 536 537 539 538 540 176 175 172 174 173 108